9769
1 1 1 1 1 1 1 1 1 1 
3 6 3 0 2 9 5 5 3 7 7 4 1 9 9 2 2 2 5 3 0 0 0 4 0 0 7 4 4 7 7 7 3 3 3 5 1 9 0 6 0 6 9 9 5 5 5 5 5 3 3 5 6 4 0 0 6 6 1 2 9 7 7 7 3 3 0 4 8 7 3 6 6 6 0 4 4 3 3 4 3 5 2 9 2 2 6 7 2 7 9 2 2 1 1 2 1 9 2 9 
